14 965
525 7 445 7 264 7 63 9 889 11 721 18
525 7 445 7 264 7 63 9 889 11 721 18
525 7 484 7 368 7 123 9 857 11 633 18
535 8 512 8 469 7 405 15 290 26
525 7 505 7 381 7 219 9 28 11 852 15 669 21
525 7 482 7 360 7 112 9 937 13
521 7 473 7 327 11
525 7 484 7 368 7 123 9 857 11 631 18
525 7 445 7 357 7 195 9 48 11 872 15 715 22
525 7 479 7 355 7 106 9 927 13
525 7 482 7 394 7 212 9 29 11 822 15 625 21
525 7 482 7 394 7 212 9 29 11 822 15 625 21
525 7 479 7 355 7 106 9 927 13
525 7 482 7 365 7 115 9 943 13
